

******************************************************************************
This program contains Ipopt, a library for large-scale nonlinear optimization.
 Ipopt is released as open source code under the Eclipse Public License (EPL).
         For more information visit https://github.com/coin-or/Ipopt
******************************************************************************

This is Ipopt version 3.14.11, running with linear solver MUMPS 5.5.1.

Number of nonzeros in equality constraint Jacobian...:        0
Number of nonzeros in inequality constraint Jacobian.:        0
Number of nonzeros in Lagrangian Hessian.............:        3

Total number of variables............................:        2
                     variables with only lower bounds:        0
                variables with lower and upper bounds:        0
                     variables with only upper bounds:        0
Total number of equality constraints.................:        0
Total number of inequality constraints...............:        0
        inequality constraints with only lower bounds:        0
   inequality constraints with lower and upper bounds:        0
        inequality constraints with only upper bounds:        0

iter    objective    inf_pr   inf_du lg(mu)  ||d||  lg(rg) alpha_du alpha_pr  ls
   0  2.4062500e+01 0.00e+00 2.75e+01  -1.0 0.00e+00    -  0.00e+00 0.00e+00   0
   1  1.5306100e+01 0.00e+00 2.66e+01  -1.0 2.84e-01   2.0 1.00e+00 1.00e+00f  1
   2  1.1451593e+01 0.00e+00 2.58e+01  -1.0 9.92e-02   2.4 1.00e+00 1.00e+00f  1
   3  2.0253726e+00 0.00e+00 3.06e+01  -1.0 4.21e-01   1.9 1.00e+00 1.00e+00f  1
   4  2.5113886e-01 0.00e+00 1.71e+00  -1.0 1.74e-01   1.5 1.00e+00 1.00e+00f  1
   5  2.4088215e-01 0.00e+00 2.65e-01  -1.0 3.32e-02    -  1.00e+00 1.00e+00f  1
   6  2.4051090e-01 0.00e+00 8.53e-03  -1.7 5.82e-03    -  1.00e+00 1.00e+00f  1
   7  2.4051059e-01 0.00e+00 6.71e-06  -3.8 1.62e-04    -  1.00e+00 1.00e+00f  1
   8  2.4051059e-01 0.00e+00 5.34e-12  -8.6 1.47e-07    -  1.00e+00 1.00e+00f  1

Number of Iterations....: 8

                                   (scaled)                 (unscaled)
Objective...............:   2.4051059399905800e-01    2.4051059399905800e-01
Dual infeasibility......:   5.3366200347682025e-12    5.3366200347682025e-12
Constraint violation....:   0.0000000000000000e+00    0.0000000000000000e+00
Variable bound violation:   0.0000000000000000e+00    0.0000000000000000e+00
Complementarity.........:   0.0000000000000000e+00    0.0000000000000000e+00
Overall NLP error.......:   5.3366200347682025e-12    5.3366200347682025e-12


Number of objective function evaluations             = 9
Number of objective gradient evaluations             = 9
Number of equality constraint evaluations            = 0
Number of inequality constraint evaluations          = 0
Number of equality constraint Jacobian evaluations   = 0
Number of inequality constraint Jacobian evaluations = 0
Number of Lagrangian Hessian evaluations             = 8
Total seconds in IPOPT                               = 0.006

EXIT: Optimal Solution Found.
 
Ipopt 3.14.11: Optimal Solution Found
